# Objective value = 9450
I0(0) 0
I1(0) 0
I2(0) 0
I3(0) 0
I4(0) 0
I5(0) 0
I6(0) 0
I7(0) 0
I8(0) 0
I9(0) 0
I10(0) 0
I11(12) 6572
I12(0) 0
I13(0) 0
I14(0) 0
I15(0) 0
I16(0) 0
I17(0) 0
I18(0) 0
I19(0) 0
I20(0) 0
I21(0) 0
I22(0) 0
I23(12) 0
I24(0) 0
I25(0) 0
I26(0) 0
I27(0) 0
I28(0) 0
I29(0) 0
I30(0) 0
I31(0) 0
I32(0) 0
I33(0) 0
I34(0) 0
I35(12) 0
I36(0) 0
I37(0) 0
I38(0) 0
I39(0) 0
I40(0) 0
I41(0) 0
I42(0) 0
I43(0) 0
I44(0) 0
I45(0) 0
I46(0) 0
I47(12) 0
I48(0) 0
I49(0) 0
I50(0) 0
I51(0) 0
I52(0) 0
I53(0) 0
I54(0) 0
I55(0) 0
I56(0) 0
I57(0) 0
I58(0) 0
I59(12) 0
I60(0) 0
I61(0) 0
I62(0) 0
I63(0) 0
I64(0) 0
I65(0) 0
I66(0) 0
I67(0) 0
I68(0) 0
I69(0) 0
I70(0) 0
I71(12) 0
I72(0) 0
I73(0) 0
I74(0) 0
I75(0) 0
I76(0) 0
I77(0) 0
I78(0) 0
I79(0) 0
I80(0) 0
I81(0) 0
I82(0) 0
I83(12) 0
I84(0) 0
I85(0) 0
I86(0) 0
I87(0) 0
I88(0) 0
I89(0) 0
I90(0) 0
I91(0) 0
I92(0) 0
I93(0) 0
I94(0) 0
I95(12) 21140
I96(0) 0
I97(0) 0
I98(0) 0
I99(0) 0
I100(0) 0
I101(0) 0
I102(0) 0
I103(0) 0
I104(0) 0
I105(0) 0
I106(0) 0
I107(12) 0
I108(0) 0
I109(0) 0
I110(0) 0
I111(0) 0
I112(0) 0
I113(0) 0
I114(0) 0
I115(0) 0
I116(0) 0
I117(0) 0
I118(0) 0
I119(12) 0
I120(0) 0
I121(0) 0
I122(0) 0
I123(0) 0
I124(0) 0
I125(0) 0
I126(0) 0
I127(0) 0
I128(0) 0
I129(0) 0
I130(0) 0
I131(12) 0
I132(0) 0
I133(0) 0
I134(0) 0
I135(0) 0
I136(0) 0
I137(0) 0
I138(0) 0
I139(0) 0
I140(0) 0
I141(0) 0
I142(0) 0
I143(12) 0
